sat
(:added-eqs                       129
 :arith-eq-adapter                43
 :arith-bound-propagations-lp     12
 :arith-conflicts                 35
 :arith-cube-calls                1
 :arith-diseq                     64
 :arith-fixed-eqs                 11
 :arith-gcd-calls                 9
 :arith-gomory-cuts               2
 :arith-grobner-calls             18
 :arith-grobner-conflicts         2
 :arith-hnf-calls                 1
 :arith-horner-calls              2
 :arith-horner-cross-nested-forms 524
 :arith-lower                     111
 :arith-make-feasible             111
 :arith-max-columns               552
 :arith-max-rows                  45
 :arith-nla-add-bounds            13
 :arith-nla-lemmas                22
 :arith-nla-propagate-bounds      7
 :arith-nla-propagate-eq          36
 :arith-nra-calls                 8
 :arith-patches                   9
 :arith-patches-success           8
 :arith-upper                     660
 :binary-propagations             846
 :card2bv-rewrites                6
 :conflicts                       14
 :decisions                       1797
 :del-clause                      56
 :elim-unconstrained              13
 :final-checks                    36
 :max-memory                      22.47
 :memory                          18.87
 :mk-bool-var                     836
 :mk-clause                       152
 :mk-clause-binary                675
 :nlsat-conflicts                 306
 :nlsat-decisions                 2
 :nlsat-propagations              3331
 :nlsat-stages                    2548
 :num-allocs                      18483352
 :num-checks                      1
 :propagations                    940
 :rlimit-count                    343421
 :time                            0.24
 :total-time                      0.26)
